# Version information for this restart file 
# current date 2020-12-22 01:33:23.769
# current working dir /home/jtyang/lyhu/Na11Sn2PS12/cp2k/opt/SR
# Program compiled at                              Tue Dec 10 05:47:38 CST 2019
# Program compiled on                                                     node5
# Program compiled for                                                    local
# Source code revision number                                       git:4a6b4eb
&EXT_RESTART
    RESTART_FILE_NAME job-1.restart
&END EXT_RESTART
&GLOBAL
    EXTENDED_FFT_LENGTHS  T
    PRINT_LEVEL  MEDIUM
    PROJECT_NAME job
    RUN_TYPE MD
&END GLOBAL
&MOTION
    &MD
        ENSEMBLE  NVT
        STEPS  5 # 3ps
        TIMESTEP     1.9999999999999998E+00
        TEMPERATURE     1.0500000000000000E+03
        &THERMOSTAT
            &CSVR
                TIMECON     9.9999999999999986E+01
            &END CSVR
        &END THERMOSTAT
        &PRINT
            &ENERGY  SILENT
                &EACH
                    MD  1
                &END EACH
            &END ENERGY
            &PROGRAM_RUN_INFO  SILENT
                &EACH
                    MD  1
                &END EACH
            &END PROGRAM_RUN_INFO
        &END PRINT
    &END MD
    &PRINT
        &TRAJECTORY  SILENT
            FILENAME =trj1.xyz
            &EACH
                MD  1
            &END EACH
        &END TRAJECTORY
        &VELOCITIES  OFF
        &END VELOCITIES
        &FORCES  OFF
        &END FORCES
        &RESTART  ON
            BACKUP_COPIES  1
            &EACH
                MD  5
            &END EACH
        &END RESTART
        &RESTART_HISTORY  OFF
        &END RESTART_HISTORY
    &END PRINT
&END MOTION
&FORCE_EVAL
    METHOD  QS
    STRESS_TENSOR  ANALYTICAL
    &DFT
        BASIS_SET_FILE_NAME BASIS_MOLOPT
        POTENTIAL_FILE_NAME POTENTIAL
        WFN_RESTART_FILE_NAME diis-RESTART.wfn
        &SCF
            MAX_SCF  30
            EPS_SCF     9.9999999999999995E-07
            SCF_GUESS  RESTART
            &OT  T
                MINIMIZER  DIIS
                PRECONDITIONER  FULL_SINGLE_INVERSE
            &END OT
            &OUTER_SCF  T
                EPS_SCF     9.9999999999999995E-07
                MAX_SCF  5
            &END OUTER_SCF
            &PRINT
                &RESTART  ON
                    BACKUP_COPIES  1
                    &EACH
                        MD  5
                    &END EACH
                &END RESTART
            &END PRINT
        &END SCF
        &QS
            EPS_DEFAULT     1.0000000000000000E-10
            METHOD  GAPW
        &END QS
        &MGRID
            NGRIDS  5
            CUTOFF     4.2000000000000000E+02
            REL_CUTOFF     6.0000000000000000E+01
        &END MGRID
        &XC
            DENSITY_CUTOFF     1.0000000000000000E-10
            GRADIENT_CUTOFF     1.0000000000000000E-10
            TAU_CUTOFF     1.0000000000000000E-10
            &XC_FUNCTIONAL  NO_SHORTCUT
                &PBE  T
                &END PBE
            &END XC_FUNCTIONAL
            &VDW_POTENTIAL
                POTENTIAL_TYPE  PAIR_POTENTIAL
                &PAIR_POTENTIAL
                    R_CUTOFF     1.6000000000000000E+01
                    TYPE  DFTD3(BJ)
                    PARAMETER_FILE_NAME dftd3.dat
                    D3BJ_SCALING     1.0000000000000000E+00    4.1449999999999998E-01    1.2177000000000000E+00    4.8593000000000002E+00
                &END PAIR_POTENTIAL
            &END VDW_POTENTIAL
        &END XC
        &POISSON
            PERIODIC  XYZ
        &END POISSON
        &PRINT
            &E_DENSITY_CUBE  OFF
            &END E_DENSITY_CUBE
        &END PRINT
    &END DFT
    &SUBSYS
        &CELL
            A     1.3489103649187452E+01    0.0000000000000000E+00    0.0000000000000000E+00
            B    -1.4401593783827502E-01    1.3533208908328932E+01    0.0000000000000000E+00
            C    -3.8585205103013315E-01   -7.1587861135002789E-02    2.6963927333565291E+01
            MULTIPLE_UNIT_CELL  1 1 1
        &END CELL
        &COORD
            Na1   -8.9927595862977133E-02    2.9463362975934781E-01    3.2706568219084624E+00
            Na2    6.2002913794508210E+00   -1.5679621116106793E-01    1.6965574891945128E+01
            Na3    6.7861545316340628E+00    2.5029907575167454E-01    1.0102390696493631E+01
            Na4    2.9532123932394834E+00    1.0038639456420665E+01    9.9755479816904788E+00
            Na5    1.0125170825715106E+01    3.5095962143564665E+00    1.7021934074221328E+01
            Na6    2.8573020818455062E+00    3.1979868826341140E+00    2.4629135247115627E+01
            Na7    9.7452090012555743E+00    1.0050974296388262E+01    3.7767491962586974E+00
            Na8    6.4109172064343261E+00    1.2096122456821330E-01    2.3577224530366156E+01
            Na9    6.6029392829852611E+00    1.3141873240329856E+01    3.3156523056422751E+00
            Na10   -5.2109505230822979E-02    1.3276537499394101E+01    1.0054921470947667E+01
            Na11    1.2943193406915254E+01    4.1615503019554684E-01    1.7159325031324872E+01
            Na12    9.7646694986514273E+00    3.1356838850076469E+00    1.0205917485164797E+01
            Na13    3.1700396198657175E+00    3.2263176990338396E+00    2.9310071455806725E+00
            Na14    9.8885597520633350E+00    1.0421721102821751E+01    2.3582203026035927E+01
            Na15    6.7136003968689213E+00    6.9763819729899517E+00    1.6969877693882047E+01
            Na16    6.4080518388333418E+00    6.6448361404780325E+00    1.0022934782749241E+01
            Na17    2.4857126854565550E-01    6.5385390877244696E+00    3.3360442978336771E+00
            Na18   -3.6212979226891195E-01    6.9123285871868152E+00    2.3851197770129371E+01
            Na19    9.4995816395269923E+00    3.6350210604380440E+00    2.3676262640271528E+01
            Na20    3.2532714002377143E+00    9.5219211714221554E+00    3.2141226722624694E+00
            Na21    1.0028018185369023E+01    9.9262959377358904E+00    9.9607887414193836E+00
            Na22    2.8692926475403611E+00    3.3217204476260962E+00    1.7089881596401394E+01
            Na23   -4.7917459805045616E-02    6.6526400408593913E+00    1.7000012623564633E+01
            Na24    6.3816525006554148E+00    6.4794569946668163E+00    2.3707186098482719E+01
            Na25    6.1128243017486819E+00    6.7708063246447789E+00    3.4588527965426215E+00
            Na26    2.7642568319007208E+00    1.0054019530656854E+01    2.3519309471162543E+01
            Na27    9.5917422823933407E+00    1.0317742636449946E+01    1.7263274400230546E+01
            Na28    3.4743060886780261E+00    3.4389494768102340E+00    1.0071195990015973E+01
            Na29    2.4115803493639773E-01    2.9418397857047989E+00    1.7385085323168345E-01
            Na30    6.3860892291649343E+00    1.0326070010745227E+01    1.3689719257684640E+01
            Na31    6.4254190612521791E+00    3.6174672250637330E+00    1.3314601407175648E+01
            Na32   -6.3471162104149426E-01    9.8456727371532242E+00    6.8379040922804597E+00
            Na33    6.3324841903069711E+00    3.2950569650505490E+00    2.0477160249443692E+01
            Na34    6.1333429415764202E+00    3.1329441203879780E+00    2.6836263626250762E+01
            Na35    6.6867623276795767E+00    1.0083351130819135E+01    2.1034858094277234E-01
            Na36   -3.6916233334134035E-01    9.8896860326187657E+00    1.3313112816391088E+01
            Na37   -3.3968543384432681E-01    3.1951836991652671E+00    1.3710375175641301E+01
            Na38    6.8575554705817687E+00    1.0069971679205972E+01    2.0126471455372531E+01
            Na39    1.0073435120481937E+01    3.3119660643962612E+00    6.7777385620060482E+00
            Na40    2.4123142884135421E-02    3.1167259408456522E+00    6.6086715914307987E+00
            Na41   -7.2873146982907366E-01    1.0246069244926199E+01    2.0383312079684234E+01
            Na42    2.6469043616358368E-01   -3.5015011445488742E-01    6.5606221706768819E+00
            Na43    1.2956155904831180E+01    5.1341324020211587E-01    2.0780795441224218E+01
            Na44    6.1514307107328809E+00   -1.3014671431954164E-01    2.0331858582192520E+01
            Na45    6.9962244523475903E+00    1.0088097621977379E-01    6.6581585491980748E+00
            Na46    3.0371381450139943E+00    1.0489916630203799E+01    1.3470681815314723E+01
            Na47    9.7195116125063130E+00    3.1161001479412294E+00    1.3671179162852457E+01
            Na48    1.0320424173347037E+01    1.0447016332176226E+01    2.7987271967612637E-01
            Na49    6.7097480200370256E+00    6.8157102948186479E+00    2.0335289581806965E+01
            Na50    6.2459384447698119E+00    6.6658926009007464E+00    6.7370936883063548E+00
            Na51    1.3019701579363886E+01    6.4548962820879394E+00    7.1562841280763339E+00
            Na52   -5.4902043959919336E-02    6.1093230185605574E+00    2.0612932773999116E+01
            Na53    1.0196642358424041E+01    3.6952601523358819E+00   -5.4497803197910881E-03
            Na54    3.3207434588275038E+00    9.8466528106368063E+00   -9.5763690803852053E-02
            Na55    9.8036513981141358E+00    9.8631434477068058E+00    1.3611280758537349E+01
            Na56    3.1156688522942027E+00    3.7436482745053374E+00    1.3545394325376407E+01
            Na57    2.1023187656457010E-01   -1.5845036746631098E+00    2.7661207567858215E-01
            Na58    6.5880612847353976E+00    1.9110573893417679E-01    1.3606527850090236E+01
            Na59    3.1221236082038231E+00    1.0149091425205267E+01    6.6084442555032359E+00
            Na60    9.9851652914138160E+00    3.4535239788691339E+00    2.0293773007833419E+01
            Na61    2.5033802891267407E+00    3.3817246453210008E+00    2.0702104681644929E+01
            Na62    6.9351903212565009E+00    1.0177135729941616E+01    6.6561518641881579E+00
            Na63    6.8316277655946536E+00   -1.4159852075564919E-01   -1.2486347723057713E-01
            Na64   -1.4826167177734545E-01   -2.2512385293867393E-01    1.3705357646572525E+01
            Na65    3.0612911194180472E+00    1.0126879373178273E+01    2.0236252444624370E+01
            Na66    1.0269360239744765E+01    3.5755408102981971E+00    3.3422286495885638E+00
            Na67    3.4236405095596192E+00    3.4133952391315034E+00    6.5432599387098529E+00
            Na68    6.4751264958246946E+00    6.9710854482379716E+00    1.3341671104746181E+01
            Na69   -5.6400949451419768E-02    7.0216029592175593E+00    1.4465523497609464E-01
            Na70   -2.2758352311442220E-01    6.4792071489393770E+00    1.3002769216902868E+01
            Na71    6.7320058164525314E+00    6.6916160099671114E+00    1.4743309687292075E-01
            Na72    9.7240931235667158E+00    7.0491914206940889E+00    2.3615185082271161E+01
            Na73    3.4306201663679667E+00    6.7113342847530753E+00    1.6831871709116673E+01
            Na74    1.0292418483343667E+01    6.3405011439782903E+00    1.0047938734320743E+01
            Na75    1.0054922131827041E+01    1.3314347038739021E+01    1.0180450234471547E+01
            Na76    2.6853622683529377E+00   -1.4428824816214469E-01    1.6812651297744551E+01
            Na77    1.0452379305797912E+01    4.8666289995773571E-01    2.3583544719542534E+01
            Na78    3.1283342284411688E+00    1.3051948306239767E+01    3.3800621708013145E+00
            Na79    3.1411437031023111E+00    6.5452224353833017E+00    2.3639384975790403E+01
            Na80    9.7903203994770216E+00    6.8042469884578525E+00    3.3435309853499646E+00
            Na81    2.3546784355658739E+00    6.5743973735253682E+00    1.0062819482936128E+01
            Na82    1.0172623339609522E+01    6.9425385249492964E+00    1.6860827203081904E+01
            Na83    9.4530204198914589E+00    2.0531103229140016E-01    1.6829521779247987E+01
            Na84    3.5291898935802215E+00    4.1517548153182635E-02    1.0141815632876428E+01
            Na85    1.0046426511325508E+01    2.0326559261127994E-01    3.4800235653066944E+00
            Na86    2.4838104373915995E+00    4.9254764426694471E-02    2.3524888227123142E+01
            Na87    3.2721368379821190E+00    1.0112986664884563E+01    1.6893314431608022E+01
            Na88    6.7638799886174912E+00    3.3626487034454660E+00    7.0075165480654347E+00
            Sn1    3.6259876752065909E+00    3.0665575978916656E-03    6.7599287521331632E+00
            Sn2    9.5379460145119292E+00   -9.9303003278571125E-02    2.0206367671704417E+01
            Sn3    2.8204125223263685E+00   -5.8728230388916128E-02    2.0130471659790384E+01
            Sn4    1.0361162714511625E+01   -2.0881043108301195E-01    6.8508254009630232E+00
            Sn5    3.1935366501353726E+00    3.6533853040600162E-01    1.3479146507415196E+01
            Sn6    9.8317398422609976E+00    1.3230210540110940E+01    1.3512223529881618E+01
            Sn7    3.3137907640959088E+00    1.3286979860785822E+01   -5.7696652887273651E-02
            Sn8    1.0199583174986127E+01    2.9205894911359720E-01    6.2041550025222811E-02
            Sn9    1.0103088995639162E+01    6.9000102252901208E+00    2.0241572743450721E+01
            Sn10    2.8754028756791046E+00    6.7727738294910624E+00    6.6504131907248736E+00
            Sn11    9.6181690521819583E+00    6.8244862302734282E+00    6.6955699497461367E+00
            Sn12    3.3611506560174358E+00    6.7625152154809518E+00    2.0204315098560411E+01
            Sn13    1.0088173617311652E+01    7.0937421648558505E+00   -3.7841219389848340E-03
            Sn14    3.3097565349923168E+00    6.3775967030242819E+00    1.2470998887850991E-01
            Sn15    9.8425550579516301E+00    6.5082202702989935E+00    1.3494060658290076E+01
            Sn16    3.1059902327714832E+00    7.1278258910445169E+00    1.3456739571017582E+01
            P1   -1.3286670270451389E-01    3.2063607818403970E+00    1.0153651530576891E+01
            P2   -3.1121779667323007E-01    1.0213692773241458E+01    1.6840404040681673E+01
            P3    6.3102994159698591E+00    1.0044849635825480E+01    2.3615819841043937E+01
            P4    6.7217840899061434E+00    3.2590772411903770E+00    3.4750519331165552E+00
            P5    6.4610434623180266E+00    3.4165424161577858E+00    1.6882865571052953E+01
            P6    6.4880281266983326E+00    1.0237007300037122E+01    1.0177182502908369E+01
            P7   -2.3883416662946852E-01    1.0126238190380842E+01    3.3350789276986657E+00
            P8   -4.2683401018020495E-01    3.3499043172480190E+00    2.3675380985816645E+01
            S1    1.7612060912298420E+00    5.0566063906502023E+00    1.3861060107319438E+00
            S2    1.1097963844316054E+01    8.4239760116072127E+00    2.5593409102043211E+01
            S3    4.5490467948531901E+00    8.4876086515409526E+00    1.4867349108861191E+01
            S4    8.4714703997399781E+00    5.1025860524846882E+00    1.2047217873723264E+01
            S5    1.1653786918023544E+01    1.2016173484159298E+01    8.2796878227407422E+00
            S6    1.4413580211399439E+00    1.4397851011233045E+00    1.8817971638029718E+01
            S7    8.1846659482178303E+00    1.3729095318657309E+00    2.1617325194942627E+01
            S8    4.8841786672186087E+00    1.2086123758368716E+01    5.4326275674464668E+00
            S9    4.4983504435343349E+00    5.0964106707969670E+00    2.5670605568157313E+01
            S10    8.6309047606382592E+00    8.4371114374322893E+00    1.4077452446909444E+00
            S11    1.7003310567006611E+00    8.4817395875136725E+00    1.2045065726399997E+01
            S12    1.1300179883464654E+01    5.1122681029403978E+00    1.4850094360155644E+01
            S13    7.9325282643513129E+00    1.2199277145336657E+01    1.8694693699354360E+01
            S14    4.9790630741482689E+00    1.4800940872860204E+00    8.1743692622303445E+00
            S15    1.1716908234206755E+01    1.2839692129896478E+00    5.4768684670645662E+00
            S16    1.3046318211551151E+00    1.2018942928193743E+01    2.1453575359381521E+01
            S17    8.3547683158261830E+00    1.1920731711569907E+01    1.4911613386255693E+01
            S18    4.6591514674321370E+00    1.7543428371919298E+00    1.2118875732556898E+01
            S19    1.1467959504760532E+01    1.7384763076596581E+00    1.5707607135624346E+00
            S20    1.6994360937577240E+00    1.1754684616989080E+01    2.5452779992830088E+01
            S21    4.7024446002559994E+00    5.3216699413565047E+00    2.1609187753021246E+01
            S22    8.1305760787223935E+00    8.0352173427498137E+00    5.2308883295372848E+00
            S23    1.5105019762399821E+00    8.2495037389295884E+00    8.0195128155890263E+00
            S24    1.1433759880006349E+01    5.4612338341716811E+00    1.8785373292146495E+01
            S25    1.1262494068502155E+01    1.1804220266687597E+01    1.2184133107111901E+01
            S26    1.7478613650182637E+00    1.6975141881725493E+00    1.4895017104993723E+01
            S27    8.3976280374778369E+00    1.6117834143498482E+00    2.5592538688611501E+01
            S28    4.7122667487173180E+00    1.1852228492983071E+01    1.3957723444113230E+00
            S29    1.5026523664136231E+00    5.1959092377116178E+00    5.4674278632110687E+00
            S30    1.1558394516311001E+01    8.0778128219102108E+00    2.1737156581807863E+01
            S31    4.7689396385214176E+00    8.2110221798127512E+00    1.8811905268480324E+01
            S32    8.3234536323731785E+00    5.3417660263465967E+00    8.1948722963736422E+00
            S33    1.9013095578366512E+00    8.8727177276395730E-01    1.4014787985155481E+00
            S34    1.1021175338684092E+01    1.2376228497822037E+01    2.5637545865960696E+01
            S35    4.4000671130876903E+00    1.2461792931162076E+01    1.4890075569841375E+01
            S36    8.6246003793040522E+00    1.1239606466407741E+00    1.2076669145353970E+01
            S37    2.1089027097742026E+00    1.2153129278982888E+01    8.2021584155354841E+00
            S38    1.0888246149715595E+01    1.3802041793839237E+00    1.8807249757183119E+01
            S39    4.1456230311436260E+00    1.3273908080731140E+00    2.1616716987081453E+01
            S40    8.7601441231671835E+00    1.2066694031768389E+01    5.4198628480675151E+00
            S41    4.4556965331576146E+00    1.0838708299423940E+00    2.5500001876286493E+01
            S42    8.6281426762171023E+00    1.2398833641676450E+01    1.4602771272580737E+00
            S43    1.7295185600754501E+00    1.2466849171309203E+01    1.2056487841027023E+01
            S44    1.1288124006226019E+01    1.1685781139470293E+00    1.4931426625296846E+01
            S45    4.1221141862973951E+00    1.2132502437758243E+01    1.8689352528616187E+01
            S46    8.9532934548424237E+00    1.2780624666301803E+00    8.2291214769143100E+00
            S47    2.2009203273472773E+00    1.3087309202193744E+00    5.3040863372994620E+00
            S48    1.0839662923771957E+01    1.2136851597629295E+01    2.1568059011480489E+01
            S49    8.4458818141784811E+00    7.8658105336941242E+00    1.4934833324578797E+01
            S50    4.4577809410926061E+00    5.7025526771434487E+00    1.2019797333550310E+01
            S51    1.1419472122044198E+01    5.6971928445909503E+00    1.4647513259770355E+00
            S52    1.6521870348650951E+00    7.7415591697831960E+00    2.5586043410811197E+01
            S53    8.6713663359092372E+00    5.4425586438923022E+00    2.1608687682697827E+01
            S54    4.3654115276146079E+00    8.1027635303213756E+00    5.3281079415115968E+00
            S55    1.1003855540581235E+01    8.1340235513068802E+00    8.1237786117199260E+00
            S56    1.9837103860447773E+00    5.3842408441081488E+00    1.8768607912999460E+01
            S57    1.1177255811956519E+01    7.9358676345007861E+00    1.2089426780644988E+01
            S58    1.7122200856356833E+00    5.7399235166360620E+00    1.4865405675656643E+01
            S59    8.3287121386179006E+00    5.5652047691906343E+00    2.5563088228185325E+01
            S60    4.6750108531174659E+00    7.9192420465184270E+00    1.4244161717259545E+00
            S61    1.1084955678631937E+01    5.3962089232963564E+00    5.3811463879302295E+00
            S62    1.8995547855997563E+00    8.0526388724507072E+00    2.1608436125643646E+01
            S63    8.6448793646009854E+00    8.2147533907791814E+00    1.8818165562068074E+01
            S64    4.2452601347626890E+00    5.4477097211043386E+00    8.2262934383015072E+00
            S65    1.1753731626140447E+00    2.1179573863197247E+00    8.9892570907595086E+00
            S66    1.2007931998135350E+01    1.1469276824195216E+01    1.7948752776750531E+01
            S67    5.1812030763570300E+00    1.1172098716320074E+01    2.2287878207767847E+01
            S68    8.0352027959948824E+00    2.1764704753884616E+00    4.6669807475547467E+00
            S69    8.7771933718942141E-01    1.1323503429909174E+01    1.5528727938824154E+01
            S70    1.2191110983863338E+01    1.9604728674393481E+00    1.1320094079414101E+01
            S71    5.6358414186341577E+00    1.9741202811945771E+00    2.3046744517365294E+00
            S72    7.4157980085924891E+00    1.1293042784366849E+01    2.4823034660663101E+01
            S73    5.2587765566326494E+00    2.2246684097788907E+00    1.8034975609234287E+01
            S74    7.7700442502048217E+00    1.1439213982767358E+01    9.1056836354725199E+00
            S75    1.0509841324943132E+00    1.1163892125898274E+01    4.6100529878857577E+00
            S76    1.1790178930634880E+01    2.6203470069423380E+00    2.2239362378752251E+01
            S77    5.2244073310262449E+00    1.1435631167381588E+01    1.1315584443750986E+01
            S78    7.6243080352440993E+00    2.2303006301799009E+00    1.5611043411047664E+01
            S79    4.3991687706089044E-01    1.7775766203880392E+00    2.4637820365065853E+01
            S80    1.1888585224666327E+01    1.1472414251790317E+01    2.5612143168236137E+00
            S81    7.6027578758476766E+00    8.8306363754379582E+00    2.2545551957997237E+01
            S82    5.4354843071716070E+00    4.3382262003624295E+00    4.6894404022246778E+00
            S83    1.2111395214015397E+01    4.3121059923952680E+00    8.9357339006784073E+00
            S84    8.9482508190553522E-01    9.0942777754412862E+00    1.8072881563299951E+01
            S85    7.7810816472166771E+00    4.5728236862985456E+00    2.2757636025555996E+00
            S86    5.0797078956891788E+00    8.8509618792205575E+00    2.4764384650100478E+01
            S87    1.1977826404599622E+01    8.9501766292048490E+00    1.5712959039636734E+01
            S88    9.8612367074346008E-01    4.4084346713555496E+00    1.1415331294784368E+01
            S89    1.2228876539489988E+01    8.6816353331889733E+00    4.3869019518683974E+00
            S90    1.0171569251565491E+00    4.5691000229196979E+00    2.2797198476242816E+01
            S91    7.6855667811600261E+00    4.5443342338066444E+00    1.8081665610084308E+01
            S92    5.3888126735439688E+00    9.0804621555945761E+00    8.8776595012571402E+00
            S93    1.1982677371257624E+01    4.5132289448848733E+00    2.5002633703790238E+01
            S94    8.4034050556714879E-01    9.2784901450721300E+00    1.8123768369912030E+00
            S95    7.5957580326192762E+00    9.0130116504827544E+00    1.1428938927304218E+01
            S96    5.2890688922420432E+00    4.6625072641246250E+00    1.5696556243638829E+01
        &END COORD
        &KIND Na
            BASIS_SET DZVP-MOLOPT-SR-GTH
            ELEMENT Na
            POTENTIAL GTH-PBE
            &POTENTIAL
                3 6
                0.2365232200000000E+00 2  0.2951049900000000E+00 -0.9138848800000000E+00
                2
                0.1435604600000000E+00 1  0.3460149228000000E+02
                0.1299322400000000E+00 1 -0.1427746168000000E+02
            &END POTENTIAL
        &END KIND
        &KIND Sn
            BASIS_SET DZVP-MOLOPT-SR-GTH
            ELEMENT Sn
            POTENTIAL GTH-PBE
            &POTENTIAL
                2 2
                0.6050000000000000E+00 1  0.6266782300000000E+01
                3
                0.5664373200000000E+00 3  0.1571181240000000E+01  0.1470041180000000E+01 -0.1178576690000000E+01
                -0.3814770130000000E+01  0.3043071930000000E+01
                -0.2415363470000000E+01
                0.6418495900000000E+00 2  0.5268976900000000E+00  0.4032578100000000E+00
                -0.4771410700000000E+00
                0.9908730200000000E+00 1  0.1987663900000000E+00
            &END POTENTIAL
        &END KIND
        &KIND P
            BASIS_SET DZVP-MOLOPT-SR-GTH
            ELEMENT P
            POTENTIAL GTH-PBE
            &POTENTIAL
                2 3
                0.4300000000000000E+00 1 -0.5875943270000000E+01
                2
                0.3963774200000000E+00 2  0.1100886207000000E+02 -0.3470356070000000E+01
                0.4480210420000000E+01
                0.4482983800000000E+00 1  0.3056064160000000E+01
                # Potential name:  GTH-PBE  for symbol:  P
                # Potential read from the potential filename: POTENTIAL
            &END POTENTIAL
        &END KIND
        &KIND S
            BASIS_SET DZVP-MOLOPT-SR-GTH
            ELEMENT S
            POTENTIAL GTH-PBE
            &POTENTIAL
                2 4
                0.4200000000000000E+00 1 -0.5986260380000000E+01
                2
                0.3648203500000000E+00 2  0.1314354448000000E+02 -0.4241830450000000E+01
                0.5476179570000000E+01
                0.4094804800000000E+00 1  0.3700890570000000E+01
                # Potential name:  GTH-PBE  for symbol:  S
                # Potential read from the potential filename: POTENTIAL
            &END POTENTIAL
        &END KIND
    &END SUBSYS
    &PRINT
        &FORCES  OFF
        &END FORCES
    &END PRINT
&END FORCE_EVAL
